language ESSENCE' 1.0
letting AssignmentMatrix be [[0, 0, 0, 0, 0, 0, 0, 0, 0, 0, 0, 0, 0, 1, 1, 1, 1, 1, 1, 1, 1, 1, 1], 
[1, 1, 0, 1, 0, 1, 0, 0, 1, 1, 0, 0, 0, 0, 0, 0, 0, 0, 0, 0, 0, 0, 1], 
[0, 0, 0, 0, 0, 0, 0, 0, 0, 0, 0, 0, 0, 0, 0, 0, 0, 0, 0, 0, 0, 0, 0], 
[0, 0, 1, 0, 0, 0, 1, 0, 0, 0, 1, 0, 1, 0, 0, 0, 0, 0, 0, 0, 0, 0, 0], 
[0, 0, 0, 0, 0, 0, 0, 0, 0, 0, 0, 0, 0, 0, 0, 1, 1, 0, 0, 0, 0, 0, 0]]
letting CPU be [2, 2, 4, 2, 63, 2, 4, 62, 2, 2, 4, 9, 4, 2, 2, 8, 8, 2, 2, 2, 2, 2, 4]
letting Memory be [3750, 3750, 7500, 3750, 244026, 3750, 7500, 244030, 3750, 3750, 7500, 488015, 7500, 3750, 3750, 15000, 15000, 3750, 3750, 3750, 3750, 3750, 15000]
letting Price be [116, 116, 210, 116, 119, 116, 210, 2, 116, 116, 210, 1, 210, 116, 116, 420, 420, 116, 116, 116, 116, 116, 350]
letting Storage be [2000, 2000, 2000, 2000, 12006, 2000, 2000, 12030, 2000, 2000, 2000, 12030, 2000, 2000, 2000, 2000, 2000, 2000, 2000, 2000, 2000, 2000, 4000]
letting VMType be [433, 433, 341, 433, 1, 433, 341, 1, 433, 433, 341, 1, 341, 433, 433, 278, 278, 433, 433, 433, 433, 433, 316]
